PREC   = Normal
ENCUT  = 250
LREAL  = .FALSE.

#electronic part
ISMEAR = 0
SIGMA  = 0.05
EDIFF  = 1.0E-06
ALGO   = Fast

NPAR   = 4
ICHARG = 11
