diamond lattice  [FCC,FCC,cF8]
1.224745
   0.00000000000000   2.21678821721878   2.21678821721878
   2.21678821721878   0.00000000000000   2.21678821721878
   2.21678821721878   2.21678821721878   0.00000000000000
Si 
2 
Direct
   0.12500000000000   0.12500000000000   0.62500000000000
   0.87500000000000   0.87500000000000   0.37500000000000
